Pizza topping combos:
1. Spinach, Pepperoni, Pineapple
2. Pepperoni, Pineapple, Mushrooms
3. Bacon, Banana Peppers, Pineapple
4. Cheese, Pineapple, Pineapple

&CONTROL
    calculation   = "vc-relax"
    forc_conv_thr =  1.0D-04
    etot_conv_thr =  1.0D-6
    nstep         =  100
    pseudo_dir    =  "./"
    outdir        =  "./wfc-out"    
/

&SYSTEM
    ecutrho     =  500
    ecutwfc     =  60
    ibrav       =  0
    nat         =  4
    ntyp        =  2
    occupations =  smearing
    smearing    =  gaussian
    degauss     =  0.01
/

&ELECTRONS
    conv_thr         =  1.0D-10
    electron_maxstep =  200
    mixing_beta      =  7.00000e-01
/

&IONS
    ion_dynamics = "bfgs"
/

&CELL
    cell_dynamics  = "bfgs"
    cell_dofree = "xy"
/
